VRPTWMS/instances/mip/fuel_F5/4/N4-C_DV100-C_SV25_F5_4_No_1.lp
\ N4-C_DV100-C_SV25_F5_4

Minimize
  233200.0 x_d0_c1 + 233200.0 z_d0_c1 + 297000.0 x_d0_c2 + 297000.0 z_d0_c2 + 53900.0 x_d0_c3 + 53900.0 z_d0_c3 + 247400.0 x_d0_c4 + 247400.0 z_d0_c4 + 330200.0 x_c1_c2 + 330200.0 x_c2_c1 + 330200.0 z_c1_c2 + 330200.0 z_c2_c1 + 269300.0 x_c1_c3 + 269300.0 x_c3_c1 + 269300.0 z_c1_c3 + 269300.0 z_c3_c1 + 184400.0 x_c1_c4 + 184400.0 x_c4_c1 + 184400.0 z_c1_c4 + 184400.0 z_c4_c1 + 347100.0 x_c2_c3 + 347100.0 x_c3_c2 + 347100.0 z_c2_c3 + 347100.0 z_c3_c2 + 153000.0 x_c2_c4 + 153000.0 x_c4_c2 + 153000.0 z_c2_c4 + 153000.0 z_c4_c2 + 300800.0 x_c3_c4 + 300800.0 x_c4_c3 + 300800.0 z_c3_c4 + 300800.0 z_c4_c3 + 233200.0 x_c1_dN + 233200.0 z_c1_dN + 297000.0 x_c2_dN + 297000.0 z_c2_dN + 53900.0 x_c3_dN + 53900.0 z_c3_dN + 247400.0 x_c4_dN + 247400.0 z_c4_dN + 1.0E7 x_d0_c1 + 1.0E7 z_d0_c1 + 1.0E7 x_d0_c2 + 1.0E7 z_d0_c2 + 1.0E7 x_d0_c3 + 1.0E7 z_d0_c3 + 1.0E7 x_d0_c4 + 1.0E7 z_d0_c4
Subject To
  Successor_DV_c1: x_c1_c2 + x_c1_c3 + x_c1_c4 + x_c1_dN = 1
  Successor_DV_c2: x_c2_c1 + x_c2_c3 + x_c2_c4 + x_c2_dN = 1
  Successor_DV_c3: x_c3_c1 + x_c3_c2 + x_c3_c4 + x_c3_dN = 1
  Successor_DV_c4: x_c4_c1 + x_c4_c2 + x_c4_c3 + x_c4_dN = 1
  Successor_SV_c1: z_c1_c2 + z_c1_c3 + z_c1_c4 + z_c1_dN <= 1
  Successor_SV_c2: z_c2_c1 + z_c2_c3 + z_c2_c4 + z_c2_dN <= 1
  Successor_SV_c3: z_c3_c1 + z_c3_c2 + z_c3_c4 + z_c3_dN <= 1
  Successor_SV_c4: z_c4_c1 + z_c4_c2 + z_c4_c3 + z_c4_dN <= 1
  Flow_DV_c1: x_d0_c1 + x_c2_c1 + x_c3_c1 + x_c4_c1 - x_c1_dN - x_c1_c2 - x_c1_c3 - x_c1_c4 = 0
  Flow_DV_c2: x_d0_c2 + x_c1_c2 + x_c3_c2 + x_c4_c2 - x_c2_dN - x_c2_c1 - x_c2_c3 - x_c2_c4 = 0
  Flow_DV_c3: x_d0_c3 + x_c1_c3 + x_c2_c3 + x_c4_c3 - x_c3_dN - x_c3_c1 - x_c3_c2 - x_c3_c4 = 0
  Flow_DV_c4: x_d0_c4 + x_c1_c4 + x_c2_c4 + x_c3_c4 - x_c4_dN - x_c4_c1 - x_c4_c2 - x_c4_c3 = 0
  Flow_SV_c1: z_d0_c1 + z_c2_c1 + z_c3_c1 + z_c4_c1 - z_c1_dN - z_c1_c2 - z_c1_c3 - z_c1_c4 = 0
  Flow_SV_c2: z_d0_c2 + z_c1_c2 + z_c3_c2 + z_c4_c2 - z_c2_dN - z_c2_c1 - z_c2_c3 - z_c2_c4 = 0
  Flow_SV_c3: z_d0_c3 + z_c1_c3 + z_c2_c3 + z_c4_c3 - z_c3_dN - z_c3_c1 - z_c3_c2 - z_c3_c4 = 0
  Flow_SV_c4: z_d0_c4 + z_c1_c4 + z_c2_c4 + z_c3_c4 - z_c4_dN - z_c4_c1 - z_c4_c2 - z_c4_c3 = 0
  travelDV_d0_c1: tauD_d0 - tauD_c1 + 1058300.0 x_d0_c1 <= 1000000.0
  travelDV_d0_c2: tauD_d0 - tauD_c2 + 1074250.0 x_d0_c2 <= 1000000.0
  travelDV_d0_c3: tauD_d0 - tauD_c3 + 1013475.0 x_d0_c3 <= 1000000.0
  travelDV_d0_c4: tauD_d0 - tauD_c4 + 1061850.0 x_d0_c4 <= 1000000.0
  travelDV_c1_c2: tauD_c1 - tauD_c2 + 1132550.0 x_c1_c2 + 80000.0 p_1 <= 1000000.0
  travelDV_c1_c3: tauD_c1 - tauD_c3 + 1117325.0 x_c1_c3 + 80000.0 p_1 <= 1000000.0
  travelDV_c1_c4: tauD_c1 - tauD_c4 + 1096100.0 x_c1_c4 + 80000.0 p_1 <= 1000000.0
  travelDV_c2_c1: tauD_c2 - tauD_c1 + 1132550.0 x_c2_c1 + 80000.0 p_2 <= 1000000.0
  travelDV_c2_c3: tauD_c2 - tauD_c3 + 1136775.0 x_c2_c3 + 80000.0 p_2 <= 1000000.0
  travelDV_c2_c4: tauD_c2 - tauD_c4 + 1088250.0 x_c2_c4 + 80000.0 p_2 <= 1000000.0
  travelDV_c3_c1: tauD_c3 - tauD_c1 + 1147325.0 x_c3_c1 + 80000.0 p_3 <= 1000000.0
  travelDV_c3_c2: tauD_c3 - tauD_c2 + 1166775.0 x_c3_c2 + 80000.0 p_3 <= 1000000.0
  travelDV_c3_c4: tauD_c3 - tauD_c4 + 1155200.0 x_c3_c4 + 80000.0 p_3 <= 1000000.0
  travelDV_c4_c1: tauD_c4 - tauD_c1 + 1086100.0 x_c4_c1 + 80000.0 p_4 <= 1000000.0
  travelDV_c4_c2: tauD_c4 - tauD_c2 + 1078250.0 x_c4_c2 + 80000.0 p_4 <= 1000000.0
  travelDV_c4_c3: tauD_c4 - tauD_c3 + 1115200.0 x_c4_c3 + 80000.0 p_4 <= 1000000.0
  TravelSV_d0_c1: tauS_d0 - tauS_c1 + 1000000.0 z_d0_c1 <= 941700.0
  TravelSV_d0_c2: tauS_d0 - tauS_c2 + 1000000.0 z_d0_c2 <= 925750.0
  TravelSV_d0_c3: tauS_d0 - tauS_c3 + 1000000.0 z_d0_c3 <= 986525.0
  TravelSV_d0_c4: tauS_d0 - tauS_c4 + 1000000.0 z_d0_c4 <= 938150.0
  TravelSV_d0_dN: tauS_d0 - tauS_dN + 1000000.0 z_d0_dN <= 1000000.0
  TravelSV_c1_c2: tauS_c1 - tauS_c2 + 1000000.0 z_c1_c2 <= 837450.0
  TravelSV_c1_c3: tauS_c1 - tauS_c3 + 1000000.0 z_c1_c3 <= 852675.0
  TravelSV_c1_c4: tauS_c1 - tauS_c4 + 1000000.0 z_c1_c4 <= 873900.0
  TravelSV_c1_dN: tauS_c1 - tauS_dN + 1000000.0 z_c1_dN <= 861700.0
  TravelSV_c2_c1: tauS_c2 - tauS_c1 + 1000000.0 z_c2_c1 <= 837450.0
  TravelSV_c2_c3: tauS_c2 - tauS_c3 + 1000000.0 z_c2_c3 <= 833225.0
  TravelSV_c2_c4: tauS_c2 - tauS_c4 + 1000000.0 z_c2_c4 <= 881750.0
  TravelSV_c2_dN: tauS_c2 - tauS_dN + 1000000.0 z_c2_dN <= 845750.0
  TravelSV_c3_c1: tauS_c3 - tauS_c1 + 1000000.0 z_c3_c1 <= 852675.0
  TravelSV_c3_c2: tauS_c3 - tauS_c2 + 1000000.0 z_c3_c2 <= 833225.0
  TravelSV_c3_c4: tauS_c3 - tauS_c4 + 1000000.0 z_c3_c4 <= 844800.0
  TravelSV_c3_dN: tauS_c3 - tauS_dN + 1000000.0 z_c3_dN <= 906525.0
  TravelSV_c4_c1: tauS_c4 - tauS_c1 + 1000000.0 z_c4_c1 <= 873900.0
  TravelSV_c4_c2: tauS_c4 - tauS_c2 + 1000000.0 z_c4_c2 <= 881750.0
  TravelSV_c4_c3: tauS_c4 - tauS_c3 + 1000000.0 z_c4_c3 <= 844800.0
  TravelSV_c4_dN: tauS_c4 - tauS_dN + 1000000.0 z_c4_dN <= 858150.0
  time_window_c1_e: tauD_c1 + 80000.0 o_1 >= 100000.0
  time_window_c1_l: tauD_c1 + 80000.0 o_1 <= 250000.0
  time_window_c2_e: tauD_c2 + 80000.0 o_2 >= 0.0
  time_window_c2_l: tauD_c2 + 80000.0 o_2 <= 1000000.0
  time_window_c3_e: tauD_c3 + 80000.0 o_3 >= 500000.0
  time_window_c3_l: tauD_c3 + 80000.0 o_3 <= 650000.0
  time_window_c4_e: tauD_c4 + 80000.0 o_4 >= 0.0
  time_window_c4_l: tauD_c4 + 80000.0 o_4 <= 1000000.0
  SyncA_c1_c2_c2: 50000.0 o_1 + 1000000.0 x_c1_c2 - tauD_c2 - 82550.0 z_c1_c2 + [ tauS_c2 * z_c1_c2 ] <= 917450.0
  SyncA_c1_c2_c3: 50000.0 o_1 + 1000000.0 x_c1_c2 - tauD_c2 - 67325.0 z_c1_c3 + [ tauS_c3 * z_c1_c3 ] <= 917450.0
  SyncA_c1_c2_c4: 50000.0 o_1 + 1000000.0 x_c1_c2 - tauD_c2 - 46100.0 z_c1_c4 + [ tauS_c4 * z_c1_c4 ] <= 917450.0
  SyncA_c1_c2_dN: 50000.0 o_1 + 1000000.0 x_c1_c2 - tauD_c2 - 58300.0 z_c1_dN + [ tauS_dN * z_c1_dN ] <= 917450.0
  SyncA_c1_c3_c2: 50000.0 o_1 + 1000000.0 x_c1_c3 - tauD_c3 - 82550.0 z_c1_c2 + [ tauS_c2 * z_c1_c2 ] <= 932675.0
  SyncA_c1_c3_c3: 50000.0 o_1 + 1000000.0 x_c1_c3 - tauD_c3 - 67325.0 z_c1_c3 + [ tauS_c3 * z_c1_c3 ] <= 932675.0
  SyncA_c1_c3_c4: 50000.0 o_1 + 1000000.0 x_c1_c3 - tauD_c3 - 46100.0 z_c1_c4 + [ tauS_c4 * z_c1_c4 ] <= 932675.0
  SyncA_c1_c3_dN: 50000.0 o_1 + 1000000.0 x_c1_c3 - tauD_c3 - 58300.0 z_c1_dN + [ tauS_dN * z_c1_dN ] <= 932675.0
  SyncA_c1_c4_c2: 50000.0 o_1 + 1000000.0 x_c1_c4 - tauD_c4 - 82550.0 z_c1_c2 + [ tauS_c2 * z_c1_c2 ] <= 953900.0
  SyncA_c1_c4_c3: 50000.0 o_1 + 1000000.0 x_c1_c4 - tauD_c4 - 67325.0 z_c1_c3 + [ tauS_c3 * z_c1_c3 ] <= 953900.0
  SyncA_c1_c4_c4: 50000.0 o_1 + 1000000.0 x_c1_c4 - tauD_c4 - 46100.0 z_c1_c4 + [ tauS_c4 * z_c1_c4 ] <= 953900.0
  SyncA_c1_c4_dN: 50000.0 o_1 + 1000000.0 x_c1_c4 - tauD_c4 - 58300.0 z_c1_dN + [ tauS_dN * z_c1_dN ] <= 953900.0
  SyncA_c1_dN_c2: 50000.0 o_1 + 1000000.0 x_c1_dN - tauD_dN - 82550.0 z_c1_c2 + [ tauS_c2 * z_c1_c2 ] <= 941700.0
  SyncA_c1_dN_c3: 50000.0 o_1 + 1000000.0 x_c1_dN - tauD_dN - 67325.0 z_c1_c3 + [ tauS_c3 * z_c1_c3 ] <= 941700.0
  SyncA_c1_dN_c4: 50000.0 o_1 + 1000000.0 x_c1_dN - tauD_dN - 46100.0 z_c1_c4 + [ tauS_c4 * z_c1_c4 ] <= 941700.0
  SyncA_c1_dN_dN: 50000.0 o_1 + 1000000.0 x_c1_dN - tauD_dN - 58300.0 z_c1_dN + [ tauS_dN * z_c1_dN ] <= 941700.0
  SyncA_c2_c1_c1: 50000.0 o_2 + 1000000.0 x_c2_c1 - tauD_c1 - 82550.0 z_c2_c1 + [ tauS_c1 * z_c2_c1 ] <= 917450.0
  SyncA_c2_c1_c3: 50000.0 o_2 + 1000000.0 x_c2_c1 - tauD_c1 - 86775.0 z_c2_c3 + [ tauS_c3 * z_c2_c3 ] <= 917450.0
  SyncA_c2_c1_c4: 50000.0 o_2 + 1000000.0 x_c2_c1 - tauD_c1 - 38250.0 z_c2_c4 + [ tauS_c4 * z_c2_c4 ] <= 917450.0
  SyncA_c2_c1_dN: 50000.0 o_2 + 1000000.0 x_c2_c1 - tauD_c1 - 74250.0 z_c2_dN + [ tauS_dN * z_c2_dN ] <= 917450.0
  SyncA_c2_c3_c1: 50000.0 o_2 + 1000000.0 x_c2_c3 - tauD_c3 - 82550.0 z_c2_c1 + [ tauS_c1 * z_c2_c1 ] <= 913225.0
  SyncA_c2_c3_c3: 50000.0 o_2 + 1000000.0 x_c2_c3 - tauD_c3 - 86775.0 z_c2_c3 + [ tauS_c3 * z_c2_c3 ] <= 913225.0
  SyncA_c2_c3_c4: 50000.0 o_2 + 1000000.0 x_c2_c3 - tauD_c3 - 38250.0 z_c2_c4 + [ tauS_c4 * z_c2_c4 ] <= 913225.0
  SyncA_c2_c3_dN: 50000.0 o_2 + 1000000.0 x_c2_c3 - tauD_c3 - 74250.0 z_c2_dN + [ tauS_dN * z_c2_dN ] <= 913225.0
  SyncA_c2_c4_c1: 50000.0 o_2 + 1000000.0 x_c2_c4 - tauD_c4 - 82550.0 z_c2_c1 + [ tauS_c1 * z_c2_c1 ] <= 961750.0
  SyncA_c2_c4_c3: 50000.0 o_2 + 1000000.0 x_c2_c4 - tauD_c4 - 86775.0 z_c2_c3 + [ tauS_c3 * z_c2_c3 ] <= 961750.0
  SyncA_c2_c4_c4: 50000.0 o_2 + 1000000.0 x_c2_c4 - tauD_c4 - 38250.0 z_c2_c4 + [ tauS_c4 * z_c2_c4 ] <= 961750.0
  SyncA_c2_c4_dN: 50000.0 o_2 + 1000000.0 x_c2_c4 - tauD_c4 - 74250.0 z_c2_dN + [ tauS_dN * z_c2_dN ] <= 961750.0
  SyncA_c2_dN_c1: 50000.0 o_2 + 1000000.0 x_c2_dN - tauD_dN - 82550.0 z_c2_c1 + [ tauS_c1 * z_c2_c1 ] <= 925750.0
  SyncA_c2_dN_c3: 50000.0 o_2 + 1000000.0 x_c2_dN - tauD_dN - 86775.0 z_c2_c3 + [ tauS_c3 * z_c2_c3 ] <= 925750.0
  SyncA_c2_dN_c4: 50000.0 o_2 + 1000000.0 x_c2_dN - tauD_dN - 38250.0 z_c2_c4 + [ tauS_c4 * z_c2_c4 ] <= 925750.0
  SyncA_c2_dN_dN: 50000.0 o_2 + 1000000.0 x_c2_dN - tauD_dN - 74250.0 z_c2_dN + [ tauS_dN * z_c2_dN ] <= 925750.0
  SyncA_c3_c1_c1: 80000.0 o_3 + 1000000.0 x_c3_c1 - tauD_c1 - 67325.0 z_c3_c1 + [ tauS_c1 * z_c3_c1 ] <= 932675.0
  SyncA_c3_c1_c2: 80000.0 o_3 + 1000000.0 x_c3_c1 - tauD_c1 - 86775.0 z_c3_c2 + [ tauS_c2 * z_c3_c2 ] <= 932675.0
  SyncA_c3_c1_c4: 80000.0 o_3 + 1000000.0 x_c3_c1 - tauD_c1 - 75200.0 z_c3_c4 + [ tauS_c4 * z_c3_c4 ] <= 932675.0
  SyncA_c3_c1_dN: 80000.0 o_3 + 1000000.0 x_c3_c1 - tauD_c1 - 13475.0 z_c3_dN + [ tauS_dN * z_c3_dN ] <= 932675.0
  SyncA_c3_c2_c1: 80000.0 o_3 + 1000000.0 x_c3_c2 - tauD_c2 - 67325.0 z_c3_c1 + [ tauS_c1 * z_c3_c1 ] <= 913225.0
  SyncA_c3_c2_c2: 80000.0 o_3 + 1000000.0 x_c3_c2 - tauD_c2 - 86775.0 z_c3_c2 + [ tauS_c2 * z_c3_c2 ] <= 913225.0
  SyncA_c3_c2_c4: 80000.0 o_3 + 1000000.0 x_c3_c2 - tauD_c2 - 75200.0 z_c3_c4 + [ tauS_c4 * z_c3_c4 ] <= 913225.0
  SyncA_c3_c2_dN: 80000.0 o_3 + 1000000.0 x_c3_c2 - tauD_c2 - 13475.0 z_c3_dN + [ tauS_dN * z_c3_dN ] <= 913225.0
  SyncA_c3_c4_c1: 80000.0 o_3 + 1000000.0 x_c3_c4 - tauD_c4 - 67325.0 z_c3_c1 + [ tauS_c1 * z_c3_c1 ] <= 924800.0
  SyncA_c3_c4_c2: 80000.0 o_3 + 1000000.0 x_c3_c4 - tauD_c4 - 86775.0 z_c3_c2 + [ tauS_c2 * z_c3_c2 ] <= 924800.0
  SyncA_c3_c4_c4: 80000.0 o_3 + 1000000.0 x_c3_c4 - tauD_c4 - 75200.0 z_c3_c4 + [ tauS_c4 * z_c3_c4 ] <= 924800.0
  SyncA_c3_c4_dN: 80000.0 o_3 + 1000000.0 x_c3_c4 - tauD_c4 - 13475.0 z_c3_dN + [ tauS_dN * z_c3_dN ] <= 924800.0
  SyncA_c3_dN_c1: 80000.0 o_3 + 1000000.0 x_c3_dN - tauD_dN - 67325.0 z_c3_c1 + [ tauS_c1 * z_c3_c1 ] <= 986525.0
  SyncA_c3_dN_c2: 80000.0 o_3 + 1000000.0 x_c3_dN - tauD_dN - 86775.0 z_c3_c2 + [ tauS_c2 * z_c3_c2 ] <= 986525.0
  SyncA_c3_dN_c4: 80000.0 o_3 + 1000000.0 x_c3_dN - tauD_dN - 75200.0 z_c3_c4 + [ tauS_c4 * z_c3_c4 ] <= 986525.0
  SyncA_c3_dN_dN: 80000.0 o_3 + 1000000.0 x_c3_dN - tauD_dN - 13475.0 z_c3_dN + [ tauS_dN * z_c3_dN ] <= 986525.0
  SyncA_c4_c1_c1: 40000.0 o_4 + 1000000.0 x_c4_c1 - tauD_c1 - 46100.0 z_c4_c1 + [ tauS_c1 * z_c4_c1 ] <= 953900.0
  SyncA_c4_c1_c2: 40000.0 o_4 + 1000000.0 x_c4_c1 - tauD_c1 - 38250.0 z_c4_c2 + [ tauS_c2 * z_c4_c2 ] <= 953900.0
  SyncA_c4_c1_c3: 40000.0 o_4 + 1000000.0 x_c4_c1 - tauD_c1 - 75200.0 z_c4_c3 + [ tauS_c3 * z_c4_c3 ] <= 953900.0
  SyncA_c4_c1_dN: 40000.0 o_4 + 1000000.0 x_c4_c1 - tauD_c1 - 61850.0 z_c4_dN + [ tauS_dN * z_c4_dN ] <= 953900.0
  SyncA_c4_c2_c1: 40000.0 o_4 + 1000000.0 x_c4_c2 - tauD_c2 - 46100.0 z_c4_c1 + [ tauS_c1 * z_c4_c1 ] <= 961750.0
  SyncA_c4_c2_c2: 40000.0 o_4 + 1000000.0 x_c4_c2 - tauD_c2 - 38250.0 z_c4_c2 + [ tauS_c2 * z_c4_c2 ] <= 961750.0
  SyncA_c4_c2_c3: 40000.0 o_4 + 1000000.0 x_c4_c2 - tauD_c2 - 75200.0 z_c4_c3 + [ tauS_c3 * z_c4_c3 ] <= 961750.0
  SyncA_c4_c2_dN: 40000.0 o_4 + 1000000.0 x_c4_c2 - tauD_c2 - 61850.0 z_c4_dN + [ tauS_dN * z_c4_dN ] <= 961750.0
  SyncA_c4_c3_c1: 40000.0 o_4 + 1000000.0 x_c4_c3 - tauD_c3 - 46100.0 z_c4_c1 + [ tauS_c1 * z_c4_c1 ] <= 924800.0
  SyncA_c4_c3_c2: 40000.0 o_4 + 1000000.0 x_c4_c3 - tauD_c3 - 38250.0 z_c4_c2 + [ tauS_c2 * z_c4_c2 ] <= 924800.0
  SyncA_c4_c3_c3: 40000.0 o_4 + 1000000.0 x_c4_c3 - tauD_c3 - 75200.0 z_c4_c3 + [ tauS_c3 * z_c4_c3 ] <= 924800.0
  SyncA_c4_c3_dN: 40000.0 o_4 + 1000000.0 x_c4_c3 - tauD_c3 - 61850.0 z_c4_dN + [ tauS_dN * z_c4_dN ] <= 924800.0
  SyncA_c4_dN_c1: 40000.0 o_4 + 1000000.0 x_c4_dN - tauD_dN - 46100.0 z_c4_c1 + [ tauS_c1 * z_c4_c1 ] <= 938150.0
  SyncA_c4_dN_c2: 40000.0 o_4 + 1000000.0 x_c4_dN - tauD_dN - 38250.0 z_c4_c2 + [ tauS_c2 * z_c4_c2 ] <= 938150.0
  SyncA_c4_dN_c3: 40000.0 o_4 + 1000000.0 x_c4_dN - tauD_dN - 75200.0 z_c4_c3 + [ tauS_c3 * z_c4_c3 ] <= 938150.0
  SyncA_c4_dN_dN: 40000.0 o_4 + 1000000.0 x_c4_dN - tauD_dN - 61850.0 z_c4_dN + [ tauS_dN * z_c4_dN ] <= 938150.0
  SVFirst_c1_c2: tauS_c2 - tauD_c1 + 50000.0 o_1 - 1000000.0 z_c1_c2 >= -787450.0
  SVFirst_c1_c3: tauS_c3 - tauD_c1 + 50000.0 o_1 - 1000000.0 z_c1_c3 >= -802675.0
  SVFirst_c1_c4: tauS_c4 - tauD_c1 + 50000.0 o_1 - 1000000.0 z_c1_c4 >= -823900.0
  SVFirst_c1_dN:  tauS_dN - tauD_c1 + 50000.0 o_1 - 1000000.0 z_c1_dN >= -811700.0
  SVFirst_c2_c1: tauS_c1 - tauD_c2 + 50000.0 o_2 - 1000000.0 z_c2_c1 >= -787450.0
  SVFirst_c2_c3: tauS_c3 - tauD_c2 + 50000.0 o_2 - 1000000.0 z_c2_c3 >= -783225.0
  SVFirst_c2_c4: tauS_c4 - tauD_c2 + 50000.0 o_2 - 1000000.0 z_c2_c4 >= -831750.0
  SVFirst_c2_dN:  tauS_dN - tauD_c2 + 50000.0 o_2 - 1000000.0 z_c2_dN >= -795750.0
  SVFirst_c3_c1: tauS_c1 - tauD_c3 + 80000.0 o_3 - 1000000.0 z_c3_c1 >= -772675.0
  SVFirst_c3_c2: tauS_c2 - tauD_c3 + 80000.0 o_3 - 1000000.0 z_c3_c2 >= -753225.0
  SVFirst_c3_c4: tauS_c4 - tauD_c3 + 80000.0 o_3 - 1000000.0 z_c3_c4 >= -764800.0
  SVFirst_c3_dN:  tauS_dN - tauD_c3 + 80000.0 o_3 - 1000000.0 z_c3_dN >= -826525.0
  SVFirst_c4_c1: tauS_c1 - tauD_c4 + 40000.0 o_4 - 1000000.0 z_c4_c1 >= -833900.0
  SVFirst_c4_c2: tauS_c2 - tauD_c4 + 40000.0 o_4 - 1000000.0 z_c4_c2 >= -841750.0
  SVFirst_c4_c3: tauS_c3 - tauD_c4 + 40000.0 o_4 - 1000000.0 z_c4_c3 >= -804800.0
  SVFirst_c4_dN:  tauS_dN - tauD_c4 + 40000.0 o_4 - 1000000.0 z_c4_dN >= -818150.0
  Precedence_Swap_c1:  p_1 - z_d0_c1 - z_c2_c1 - z_c3_c1 - z_c4_c1 = 0
  Precedence_Swap_c2:  p_2 - z_d0_c2 - z_c1_c2 - z_c3_c2 - z_c4_c2 = 0
  Precedence_Swap_c3:  p_3 - z_d0_c3 - z_c1_c3 - z_c2_c3 - z_c4_c3 = 0
  Precedence_Swap_c4:  p_4 - z_d0_c4 - z_c1_c4 - z_c2_c4 - z_c3_c4 = 0
  Order_c1:  o_1 - p_1 <= 0
  Order_c2:  o_2 - p_2 <= 0
  Order_c3:  o_3 - p_3 <= 0
  Order_c4:  o_4 - p_4 <= 0
  WorkingTimeS_c1:  tauS_c1 <= 861700.0
  WorkingTimeS_c2:  tauS_c2 <= 845750.0
  WorkingTimeS_c3:  tauS_c3 <= 906525.0
  WorkingTimeS_c4:  tauS_c4 <= 858150.0
  Freight_c1_c2:  k_c2 - k_c1 + 1000000.0 x_c1_c2 <= 950000.0
  Freight_c1_c3:  k_c3 - k_c1 + 1000000.0 x_c1_c3 <= 950000.0
  Freight_c1_c4:  k_c4 - k_c1 + 1000000.0 x_c1_c4 <= 950000.0
  Freight_c1_dN:  k_dN - k_c1 + 1000000.0 x_c1_dN <= 950000.0
  Freight_c2_c1:  k_c1 - k_c2 + 1000000.0 x_c2_c1 <= 940000.0
  Freight_c2_c3:  k_c3 - k_c2 + 1000000.0 x_c2_c3 <= 940000.0
  Freight_c2_c4:  k_c4 - k_c2 + 1000000.0 x_c2_c4 <= 940000.0
  Freight_c2_dN:  k_dN - k_c2 + 1000000.0 x_c2_dN <= 940000.0
  Freight_c3_c1:  k_c1 - k_c3 + 1000000.0 x_c3_c1 <= 970000.0
  Freight_c3_c2:  k_c2 - k_c3 + 1000000.0 x_c3_c2 <= 970000.0
  Freight_c3_c4:  k_c4 - k_c3 + 1000000.0 x_c3_c4 <= 970000.0
  Freight_c3_dN:  k_dN - k_c3 + 1000000.0 x_c3_dN <= 970000.0
  Freight_c4_c1:  k_c1 - k_c4 + 1000000.0 x_c4_c1 <= 960000.0
  Freight_c4_c2:  k_c2 - k_c4 + 1000000.0 x_c4_c2 <= 960000.0
  Freight_c4_c3:  k_c3 - k_c4 + 1000000.0 x_c4_c3 <= 960000.0
  Freight_c4_dN:  k_dN - k_c4 + 1000000.0 x_c4_dN <= 960000.0
  FuelDV_d0_c1:  phi_c1 + 65601.0 x_d0_c1 <= 100000.0
  FuelDV_d0_c2:  phi_c2 + 69869.0 x_d0_c2 <= 100000.0
  FuelDV_d0_c3:  phi_c3 + 53606.0 x_d0_c3 <= 100000.0
  FuelDV_d0_c4:  phi_c4 + 66551.0 x_d0_c4 <= 100000.0
  FuelDV_c1_c2:  phi_c2 - phi_c1 + 72090.0 x_c1_c2 + [ phi_c1 * p_1 - 50000.0 x_c1_c2 * p_1 ] <= 50000.0
  FuelDV_c1_c3:  phi_c3 - phi_c1 + 68016.0 x_c1_c3 + [ phi_c1 * p_1 - 50000.0 x_c1_c3 * p_1 ] <= 50000.0
  FuelDV_c1_c4:  phi_c4 - phi_c1 + 62336.0 x_c1_c4 + [ phi_c1 * p_1 - 50000.0 x_c1_c4 * p_1 ] <= 50000.0
  FuelDV_c1_dN:  phi_dN - phi_c1 + 65601.0 x_c1_dN + [ phi_c1 * p_1 - 50000.0 x_c1_dN * p_1 ] <= 50000.0
  FuelDV_c2_c1:  phi_c1 - phi_c2 + 72090.0 x_c2_c1 + [ phi_c2 * p_2 - 50000.0 x_c2_c1 * p_2 ] <= 50000.0
  FuelDV_c2_c3:  phi_c3 - phi_c2 + 73221.0 x_c2_c3 + [ phi_c2 * p_2 - 50000.0 x_c2_c3 * p_2 ] <= 50000.0
  FuelDV_c2_c4:  phi_c4 - phi_c2 + 60236.0 x_c2_c4 + [ phi_c2 * p_2 - 50000.0 x_c2_c4 * p_2 ] <= 50000.0
  FuelDV_c2_dN:  phi_dN - phi_c2 + 69869.0 x_c2_dN + [ phi_c2 * p_2 - 50000.0 x_c2_dN * p_2 ] <= 50000.0
  FuelDV_c3_c1:  phi_c1 - phi_c3 + 68016.0 x_c3_c1 + [ phi_c3 * p_3 - 50000.0 x_c3_c1 * p_3 ] <= 50000.0
  FuelDV_c3_c2:  phi_c2 - phi_c3 + 73221.0 x_c3_c2 + [ phi_c3 * p_3 - 50000.0 x_c3_c2 * p_3 ] <= 50000.0
  FuelDV_c3_c4:  phi_c4 - phi_c3 + 70124.0 x_c3_c4 + [ phi_c3 * p_3 - 50000.0 x_c3_c4 * p_3 ] <= 50000.0
  FuelDV_c3_dN:  phi_dN - phi_c3 + 53606.0 x_c3_dN + [ phi_c3 * p_3 - 50000.0 x_c3_dN * p_3 ] <= 50000.0
  FuelDV_c4_c1:  phi_c1 - phi_c4 + 62336.0 x_c4_c1 + [ phi_c4 * p_4 - 50000.0 x_c4_c1 * p_4 ] <= 50000.0
  FuelDV_c4_c2:  phi_c2 - phi_c4 + 60236.0 x_c4_c2 + [ phi_c4 * p_4 - 50000.0 x_c4_c2 * p_4 ] <= 50000.0
  FuelDV_c4_c3:  phi_c3 - phi_c4 + 70124.0 x_c4_c3 + [ phi_c4 * p_4 - 50000.0 x_c4_c3 * p_4 ] <= 50000.0
  FuelDV_c4_dN:  phi_dN - phi_c4 + 66551.0 x_c4_dN + [ phi_c4 * p_4 - 50000.0 x_c4_dN * p_4 ] <= 50000.0
  FreightSV_c1_c2:  pi_c2 - pi_c1 - phi_c1 + 250000.0 z_c1_c2 <= 200000.0
  FreightSV_c1_c3:  pi_c3 - pi_c1 - phi_c1 + 250000.0 z_c1_c3 <= 200000.0
  FreightSV_c1_c4:  pi_c4 - pi_c1 - phi_c1 + 250000.0 z_c1_c4 <= 200000.0
  FreightSV_c1_dN:  pi_dN - pi_c1 - phi_c1 + 250000.0 z_c1_dN <= 200000.0
  FreightSV_c2_c1:  pi_c1 - pi_c2 - phi_c2 + 250000.0 z_c2_c1 <= 200000.0
  FreightSV_c2_c3:  pi_c3 - pi_c2 - phi_c2 + 250000.0 z_c2_c3 <= 200000.0
  FreightSV_c2_c4:  pi_c4 - pi_c2 - phi_c2 + 250000.0 z_c2_c4 <= 200000.0
  FreightSV_c2_dN:  pi_dN - pi_c2 - phi_c2 + 250000.0 z_c2_dN <= 200000.0
  FreightSV_c3_c1:  pi_c1 - pi_c3 - phi_c3 + 250000.0 z_c3_c1 <= 200000.0
  FreightSV_c3_c2:  pi_c2 - pi_c3 - phi_c3 + 250000.0 z_c3_c2 <= 200000.0
  FreightSV_c3_c4:  pi_c4 - pi_c3 - phi_c3 + 250000.0 z_c3_c4 <= 200000.0
  FreightSV_c3_dN:  pi_dN - pi_c3 - phi_c3 + 250000.0 z_c3_dN <= 200000.0
  FreightSV_c4_c1:  pi_c1 - pi_c4 - phi_c4 + 250000.0 z_c4_c1 <= 200000.0
  FreightSV_c4_c2:  pi_c2 - pi_c4 - phi_c4 + 250000.0 z_c4_c2 <= 200000.0
  FreightSV_c4_c3:  pi_c3 - pi_c4 - phi_c4 + 250000.0 z_c4_c3 <= 200000.0
  FreightSV_c4_dN:  pi_dN - pi_c4 - phi_c4 + 250000.0 z_c4_dN <= 200000.0
  WorkingTimeD_c1:  tauD_c1 + 80000.0 p_1 <= 891700.0
  WorkingTimeD_c2:  tauD_c2 + 80000.0 p_2 <= 875750.0
  WorkingTimeD_c3:  tauD_c3 + 80000.0 p_3 <= 906525.0
  WorkingTimeD_c4:  tauD_c4 + 80000.0 p_4 <= 898150.0
Bounds
0 <= k_c1 <= 1000000.0
0 <= k_c2 <= 1000000.0
0 <= k_c3 <= 1000000.0
0 <= k_c4 <= 1000000.0
0 <= k_dN <= 1000000.0
0 <= phi_c1 <= 50000.0
0 <= phi_c2 <= 50000.0
0 <= phi_c3 <= 50000.0
0 <= phi_c4 <= 50000.0
0 <= phi_dN <= 50000.0
0 <= pi_c1 <= 250000.0
0 <= pi_c2 <= 250000.0
0 <= pi_c3 <= 250000.0
0 <= pi_c4 <= 250000.0
0 <= pi_dN <= 250000.0
0 <= tauD_c1 <= 1000000.0
0 <= tauD_c2 <= 1000000.0
0 <= tauD_c3 <= 1000000.0
0 <= tauD_c4 <= 1000000.0
0 <= tauD_d0 <= 1000000.0
0 <= tauD_dN <= 1000000.0
0 <= tauS_c1 <= 1000000.0
0 <= tauS_c2 <= 1000000.0
0 <= tauS_c3 <= 1000000.0
0 <= tauS_c4 <= 1000000.0
0 <= tauS_d0 <= 1000000.0
0 <= tauS_dN <= 1000000.0
Generals
  k_c1
  k_c2
  k_c3
  k_c4
  k_dN
  phi_c1
  phi_c2
  phi_c3
  phi_c4
  phi_dN
  pi_c1
  pi_c2
  pi_c3
  pi_c4
  pi_dN
  tauD_c1
  tauD_c2
  tauD_c3
  tauD_c4
  tauD_d0
  tauD_dN
  tauS_c1
  tauS_c2
  tauS_c3
  tauS_c4
  tauS_d0
  tauS_dN
Binary
  o_1
  o_2
  o_3
  o_4
  p_1
  p_2
  p_3
  p_4
  x_c1_c2
  x_c1_c3
  x_c1_c4
  x_c1_dN
  x_c2_c1
  x_c2_c3
  x_c2_c4
  x_c2_dN
  x_c3_c1
  x_c3_c2
  x_c3_c4
  x_c3_dN
  x_c4_c1
  x_c4_c2
  x_c4_c3
  x_c4_dN
  x_d0_c1
  x_d0_c2
  x_d0_c3
  x_d0_c4
  z_c1_c2
  z_c1_c3
  z_c1_c4
  z_c1_dN
  z_c2_c1
  z_c2_c3
  z_c2_c4
  z_c2_dN
  z_c3_c1
  z_c3_c2
  z_c3_c4
  z_c3_dN
  z_c4_c1
  z_c4_c2
  z_c4_c3
  z_c4_dN
  z_d0_c1
  z_d0_c2
  z_d0_c3
  z_d0_c4
End
